p cnf 61 217
-2 3 -4 0
2 -3 -4 0
-2 -3 4 0
2 3 4 0
5 1 0
5 4 0
-1 -4 -5 0
7 3 0
7 -6 0
-3 6 -7 0
-10 -8 0
-10 -9 0
8 9 10 0
-11 -1 0
-11 -9 0
1 9 11 0
-12 10 0
-12 -11 0
-10 11 12 0
-13 -7 0
-13 -12 0
7 12 13 0
9 8 -14 0
-9 -8 -14 0
9 -8 14 0
-9 8 14 0
15 -3 0
15 3 0
-14 15 -16 0
14 -15 -16 0
-14 -15 16 0
14 15 16 0
-17 -13 0
-17 -16 0
13 16 17 0
-18 5 0
-18 -17 0
-5 17 18 0
19 -8 0
19 3 0
8 -3 -19 0
20 11 0
20 19 0
-11 -19 -20 0
21 20 0
21 -11 0
-20 11 -21 0
23 3 0
23 22 0
-3 -22 -23 0
-24 -15 0
-24 14 0
15 -14 24 0
-22 -25 -26 0
22 25 -26 0
-22 25 26 0
22 -25 26 0
-24 -26 -27 0
24 26 -27 0
-24 26 27 0
24 -26 27 0
-28 -23 0
-28 -27 0
23 27 28 0
21 28 -29 0
-21 -28 -29 0
21 -28 29 0
-21 28 29 0
30 -1 0
30 3 0
1 -3 -30 0
25 -10 -31 0
-25 10 -31 0
25 10 31 0
-25 -10 31 0
30 31 -32 0
-30 -31 -32 0
30 -31 32 0
-30 31 32 0
-34 -35 0
34 -35 0
-36 -33 0
-36 35 0
33 -35 36 0
-35 11 -37 0
35 -11 -37 0
-35 -11 37 0
35 11 37 0
-36 -37 -38 0
36 37 -38 0
-36 37 38 0
36 -37 38 0
39 32 0
39 38 0
-32 -38 -39 0
-40 29 0
-40 -39 0
-29 39 40 0
18 -40 -41 0
-18 40 -41 0
18 40 41 0
-18 -40 41 0
-42 -1 0
-42 -9 0
1 9 42 0
42 -34 -43 0
-42 34 -43 0
42 34 43 0
-42 -34 43 0
-44 -43 0
-44 -42 0
43 42 44 0
-45 -15 0
-45 -19 0
15 19 45 0
-46 -25 0
-46 2 0
25 -2 46 0
47 -1 0
47 -9 0
1 9 -47 0
-48 46 0
-48 -47 0
-46 47 48 0
49 45 0
49 48 0
-45 -48 -49 0
8 2 -50 0
-8 -2 -50 0
8 -2 50 0
-8 2 50 0
51 -50 0
51 -4 0
50 4 -51 0
52 15 0
52 6 0
-15 -6 -52 0
-51 52 -53 0
51 -52 -53 0
-51 -52 53 0
51 52 53 0
54 -2 0
54 -9 0
2 9 -54 0
55 -54 0
55 -19 0
54 19 -55 0
-56 22 0
-56 -42 0
-22 42 56 0
-57 -55 0
-57 56 0
55 -56 57 0
58 53 0
58 57 0
-53 -57 -58 0
-49 -58 -59 0
49 58 -59 0
-49 58 59 0
49 -58 59 0
-60 -44 0
-60 59 0
44 -59 60 0
61 41 0
61 -60 0
-41 60 -61 0
13 22 45 12 -53 0
16 -38 -52 8 2 37 0
-13 43 0
-56 -8 -4 34 0
48 11 12 41 0
7 49 51 0
39 46 -50 0
36 58 10 -7 -16 0
61 36 -33 35 0
58 38 49 -4 16 0
16 38 0
20 -41 60 -45 7 -13 0
5 54 -3 -37 0
-51 -5 52 20 -30 0
9 45 -10 50 35 -28 0
-33 -40 -23 0
-27 -6 10 30 0
50 -4 19 -22 -6 0
-59 43 -14 -53 -20 15 0
-19 -46 0
11 10 -36 12 0
-3 -19 22 0
-10 -31 0
50 21 -48 3 7 -52 0
40 35 16 0
33 -53 -3 37 -22 23 0
34 24 -19 61 -59 1 0
1 14 35 28 42 0
42 43 21 -40 -26 0
-36 -29 1 56 54 -30 0
-15 36 -24 -23 -61 0
25 3 0
38 -11 0
31 53 -30 0
-40 -24 -26 41 51 0
-55 4 -57 -31 0
-33 9 0
-8 6 -18 3 0
-57 40 0
41 -10 6 23 56 0
28 -59 0
-35 -21 -52 -12 -56 0
42 -51 18 15 6 0
8 -58 0
27 16 0
-26 2 -42 37 21 0
-41 27 22 -42 -34 0
19 -23 52 54 -32 0
27 -42 -18 -2 -10 52 0
22 2 0
61 0
